NAME: random_40_9
TYPE: TSP
COMMENT: random_40_9
DIMENSION: 40
EDGE_WEIGHT_TYPE: EUC_2D
NODE_COORD_SECTION
1 137 73
2 375 50
3 145 20
4 141 51
5 273 477
6 246 455
7 100 106
8 14 227
9 489 15
10 319 311
11 280 160
12 329 363
13 54 124
14 399 350
15 78 429
16 337 298
17 24 346
18 142 28
19 126 126
20 148 209
21 12 323
22 59 39
23 280 193
24 22 139
25 42 44
26 371 123
27 148 155
28 323 30
29 154 105
30 467 328
31 495 310
32 291 434
33 401 137
34 230 7
35 484 244
36 223 434
37 2 341
38 494 251
39 382 207
40 191 253
